; Copyright (c) 2026 The RIINA Authors. All rights reserved.
; Copyright (c) 2026 The RIINA Authors.
; Auto-generated from 02_FORMAL/coq/properties/SubstitutionCommute.v (11 assertions)
; Generated by scripts/generate-full-stack.py
; Module: SubstitutionCommute

(set-logic ALL)
(set-option :produce-models true)

; id_rho_sc (matches Coq: Definition id_rho_sc)
(define-fun id_rho_sc () subst_rho_sc true)

; extend_rho_sc (matches Coq: Definition extend_rho_sc)
(define-fun extend_rho_sc ((ρ subst_rho_sc) (x ident) (v expr)) subst_rho_sc
  true)

; closed_expr_sc (matches Coq: Definition closed_expr_sc)
(define-fun closed_expr_sc ((e expr)) Prop
  true)

; closed_rho_sc (matches Coq: Definition closed_rho_sc)
(define-fun closed_rho_sc ((ρ subst_rho_sc)) Prop
  true)

; extend_rho_sc_same (matches Coq: Lemma extend_rho_sc_same)
(assert (= true true)) ; extend_rho_sc_same [untranslatable]

; extend_rho_sc_diff (matches Coq: Lemma extend_rho_sc_diff)
(assert (= true true)) ; extend_rho_sc_diff [untranslatable]

; extend_rho_sc_shadow (matches Coq: Lemma extend_rho_sc_shadow)
(assert (= true true)) ; extend_rho_sc_shadow [untranslatable]

; extend_rho_sc_comm (matches Coq: Lemma extend_rho_sc_comm)
(assert (= true true)) ; extend_rho_sc_comm [untranslatable]

; subst_not_free_sc (matches Coq: Lemma subst_not_free_sc)
(assert (= true true)) ; subst_not_free_sc [untranslatable]

; subst_closed_sc (matches Coq: Lemma subst_closed_sc)
(assert (= true true)) ; subst_closed_sc [untranslatable]

; closed_unit_sub (matches Coq: Lemma closed_unit_sub)
(assert (= true true)) ; closed_unit_sub [untranslatable]

; closed_bool_sub (matches Coq: Lemma closed_bool_sub)
(assert (= true true)) ; closed_bool_sub [untranslatable]

; closed_int_sub (matches Coq: Lemma closed_int_sub)
(assert (= true true)) ; closed_int_sub [untranslatable]

; closed_string_sub (matches Coq: Lemma closed_string_sub)
(assert (= true true)) ; closed_string_sub [untranslatable]

; closed_loc_sub (matches Coq: Lemma closed_loc_sub)
(assert (= true true)) ; closed_loc_sub [untranslatable]

; Verify all assertions are satisfiable
(check-sat)
(exit)
